c not original file ! May have been modified for weighted vertex coloring problem (edges and vertices stay the same only weights may have been moved to an other file)
p edge 151 1406
e 1 2
e 1 3
e 1 4
e 1 5
e 1 6
e 1 7
e 1 28
e 1 38
e 1 48
e 1 60
e 1 73
e 1 83
e 1 95
e 1 124
e 1 146
e 2 3
e 2 4
e 2 5
e 2 6
e 2 7
e 2 12
e 2 19
e 2 30
e 2 51
e 2 63
e 2 86
e 2 117
e 2 136
e 2 147
e 3 4
e 3 5
e 3 6
e 3 7
e 3 31
e 3 40
e 3 64
e 3 75
e 3 87
e 3 98
e 3 106
e 3 118
e 3 125
e 3 137
e 3 148
e 4 5
e 4 6
e 4 7
e 4 14
e 4 21
e 4 42
e 4 53
e 4 66
e 4 88
e 4 99
e 4 108
e 4 120
e 4 127
e 5 6
e 5 7
e 5 15
e 5 67
e 5 76
e 5 89
e 5 100
e 5 109
e 5 128
e 5 139
e 6 7
e 6 17
e 6 35
e 6 56
e 6 70
e 6 78
e 6 90
e 6 112
e 6 131
e 7 24
e 7 45
e 7 57
e 7 79
e 7 91
e 7 142
e 8 9
e 8 10
e 8 11
e 8 12
e 8 13
e 8 14
e 8 15
e 8 16
e 8 17
e 8 26
e 8 46
e 8 58
e 8 71
e 8 81
e 8 93
e 8 103
e 8 114
e 8 122
e 8 133
e 8 144
e 9 10
e 9 11
e 9 12
e 9 13
e 9 14
e 9 15
e 9 16
e 9 17
e 9 27
e 9 37
e 9 47
e 9 59
e 9 72
e 9 82
e 9 94
e 9 115
e 9 123
e 9 145
e 10 11
e 10 12
e 10 13
e 10 14
e 10 15
e 10 16
e 10 17
e 10 18
e 10 29
e 10 39
e 10 49
e 10 61
e 10 84
e 10 96
e 10 104
e 10 134
e 11 12
e 11 13
e 11 14
e 11 15
e 11 16
e 11 17
e 11 50
e 11 62
e 11 74
e 11 85
e 11 97
e 11 105
e 11 116
e 11 135
e 12 13
e 12 14
e 12 15
e 12 16
e 12 17
e 12 19
e 12 30
e 12 51
e 12 63
e 12 86
e 12 117
e 12 136
e 12 147
e 13 14
e 13 15
e 13 16
e 13 17
e 13 20
e 13 32
e 13 41
e 13 52
e 13 65
e 13 107
e 13 119
e 13 126
e 13 138
e 13 149
e 14 15
e 14 16
e 14 17
e 14 21
e 14 42
e 14 53
e 14 66
e 14 88
e 14 99
e 14 108
e 14 120
e 14 127
e 15 16
e 15 17
e 15 67
e 15 76
e 15 89
e 15 100
e 15 109
e 15 128
e 15 139
e 16 17
e 16 22
e 16 33
e 16 43
e 16 54
e 16 68
e 16 77
e 16 101
e 16 110
e 16 129
e 16 140
e 16 150
e 17 35
e 17 56
e 17 70
e 17 78
e 17 90
e 17 112
e 17 131
e 18 19
e 18 20
e 18 21
e 18 22
e 18 23
e 18 24
e 18 25
e 18 29
e 18 39
e 18 49
e 18 61
e 18 84
e 18 96
e 18 104
e 18 134
e 19 20
e 19 21
e 19 22
e 19 23
e 19 24
e 19 25
e 19 30
e 19 51
e 19 63
e 19 86
e 19 117
e 19 136
e 19 147
e 20 21
e 20 22
e 20 23
e 20 24
e 20 25
e 20 32
e 20 41
e 20 52
e 20 65
e 20 107
e 20 119
e 20 126
e 20 138
e 20 149
e 21 22
e 21 23
e 21 24
e 21 25
e 21 42
e 21 53
e 21 66
e 21 88
e 21 99
e 21 108
e 21 120
e 21 127
e 22 23
e 22 24
e 22 25
e 22 33
e 22 43
e 22 54
e 22 68
e 22 77
e 22 101
e 22 110
e 22 129
e 22 140
e 22 150
e 23 24
e 23 25
e 23 34
e 23 44
e 23 55
e 23 69
e 23 102
e 23 111
e 23 121
e 23 130
e 23 141
e 24 25
e 24 45
e 24 57
e 24 79
e 24 91
e 24 142
e 25 36
e 25 80
e 25 92
e 25 113
e 25 132
e 25 143
e 25 151
e 26 27
e 26 28
e 26 29
e 26 30
e 26 31
e 26 32
e 26 33
e 26 34
e 26 35
e 26 36
e 26 46
e 26 58
e 26 71
e 26 81
e 26 93
e 26 103
e 26 114
e 26 122
e 26 133
e 26 144
e 27 28
e 27 29
e 27 30
e 27 31
e 27 32
e 27 33
e 27 34
e 27 35
e 27 36
e 27 37
e 27 47
e 27 59
e 27 72
e 27 82
e 27 94
e 27 115
e 27 123
e 27 145
e 28 29
e 28 30
e 28 31
e 28 32
e 28 33
e 28 34
e 28 35
e 28 36
e 28 38
e 28 48
e 28 60
e 28 73
e 28 83
e 28 95
e 28 124
e 28 146
e 29 30
e 29 31
e 29 32
e 29 33
e 29 34
e 29 35
e 29 36
e 29 39
e 29 49
e 29 61
e 29 84
e 29 96
e 29 104
e 29 134
e 30 31
e 30 32
e 30 33
e 30 34
e 30 35
e 30 36
e 30 51
e 30 63
e 30 86
e 30 117
e 30 136
e 30 147
e 31 32
e 31 33
e 31 34
e 31 35
e 31 36
e 31 40
e 31 64
e 31 75
e 31 87
e 31 98
e 31 106
e 31 118
e 31 125
e 31 137
e 31 148
e 32 33
e 32 34
e 32 35
e 32 36
e 32 41
e 32 52
e 32 65
e 32 107
e 32 119
e 32 126
e 32 138
e 32 149
e 33 34
e 33 35
e 33 36
e 33 43
e 33 54
e 33 68
e 33 77
e 33 101
e 33 110
e 33 129
e 33 140
e 33 150
e 34 35
e 34 36
e 34 44
e 34 55
e 34 69
e 34 102
e 34 111
e 34 121
e 34 130
e 34 141
e 35 36
e 35 56
e 35 70
e 35 78
e 35 90
e 35 112
e 35 131
e 36 80
e 36 92
e 36 113
e 36 132
e 36 143
e 36 151
e 37 38
e 37 39
e 37 40
e 37 41
e 37 42
e 37 43
e 37 44
e 37 45
e 37 47
e 37 59
e 37 72
e 37 82
e 37 94
e 37 115
e 37 123
e 37 145
e 38 39
e 38 40
e 38 41
e 38 42
e 38 43
e 38 44
e 38 45
e 38 48
e 38 60
e 38 73
e 38 83
e 38 95
e 38 124
e 38 146
e 39 40
e 39 41
e 39 42
e 39 43
e 39 44
e 39 45
e 39 49
e 39 61
e 39 84
e 39 96
e 39 104
e 39 134
e 40 41
e 40 42
e 40 43
e 40 44
e 40 45
e 40 64
e 40 75
e 40 87
e 40 98
e 40 106
e 40 118
e 40 125
e 40 137
e 40 148
e 41 42
e 41 43
e 41 44
e 41 45
e 41 52
e 41 65
e 41 107
e 41 119
e 41 126
e 41 138
e 41 149
e 42 43
e 42 44
e 42 45
e 42 53
e 42 66
e 42 88
e 42 99
e 42 108
e 42 120
e 42 127
e 43 44
e 43 45
e 43 54
e 43 68
e 43 77
e 43 101
e 43 110
e 43 129
e 43 140
e 43 150
e 44 45
e 44 55
e 44 69
e 44 102
e 44 111
e 44 121
e 44 130
e 44 141
e 45 57
e 45 79
e 45 91
e 45 142
e 46 47
e 46 48
e 46 49
e 46 50
e 46 51
e 46 52
e 46 53
e 46 54
e 46 55
e 46 56
e 46 57
e 46 58
e 46 71
e 46 81
e 46 93
e 46 103
e 46 114
e 46 122
e 46 133
e 46 144
e 47 48
e 47 49
e 47 50
e 47 51
e 47 52
e 47 53
e 47 54
e 47 55
e 47 56
e 47 57
e 47 59
e 47 72
e 47 82
e 47 94
e 47 115
e 47 123
e 47 145
e 48 49
e 48 50
e 48 51
e 48 52
e 48 53
e 48 54
e 48 55
e 48 56
e 48 57
e 48 60
e 48 73
e 48 83
e 48 95
e 48 124
e 48 146
e 49 50
e 49 51
e 49 52
e 49 53
e 49 54
e 49 55
e 49 56
e 49 57
e 49 61
e 49 84
e 49 96
e 49 104
e 49 134
e 50 51
e 50 52
e 50 53
e 50 54
e 50 55
e 50 56
e 50 57
e 50 62
e 50 74
e 50 85
e 50 97
e 50 105
e 50 116
e 50 135
e 51 52
e 51 53
e 51 54
e 51 55
e 51 56
e 51 57
e 51 63
e 51 86
e 51 117
e 51 136
e 51 147
e 52 53
e 52 54
e 52 55
e 52 56
e 52 57
e 52 65
e 52 107
e 52 119
e 52 126
e 52 138
e 52 149
e 53 54
e 53 55
e 53 56
e 53 57
e 53 66
e 53 88
e 53 99
e 53 108
e 53 120
e 53 127
e 54 55
e 54 56
e 54 57
e 54 68
e 54 77
e 54 101
e 54 110
e 54 129
e 54 140
e 54 150
e 55 56
e 55 57
e 55 69
e 55 102
e 55 111
e 55 121
e 55 130
e 55 141
e 56 57
e 56 70
e 56 78
e 56 90
e 56 112
e 56 131
e 57 79
e 57 91
e 57 142
e 58 59
e 58 60
e 58 61
e 58 62
e 58 63
e 58 64
e 58 65
e 58 66
e 58 67
e 58 68
e 58 69
e 58 70
e 58 71
e 58 81
e 58 93
e 58 103
e 58 114
e 58 122
e 58 133
e 58 144
e 59 60
e 59 61
e 59 62
e 59 63
e 59 64
e 59 65
e 59 66
e 59 67
e 59 68
e 59 69
e 59 70
e 59 72
e 59 82
e 59 94
e 59 115
e 59 123
e 59 145
e 60 61
e 60 62
e 60 63
e 60 64
e 60 65
e 60 66
e 60 67
e 60 68
e 60 69
e 60 70
e 60 73
e 60 83
e 60 95
e 60 124
e 60 146
e 61 62
e 61 63
e 61 64
e 61 65
e 61 66
e 61 67
e 61 68
e 61 69
e 61 70
e 61 84
e 61 96
e 61 104
e 61 134
e 62 63
e 62 64
e 62 65
e 62 66
e 62 67
e 62 68
e 62 69
e 62 70
e 62 74
e 62 85
e 62 97
e 62 105
e 62 116
e 62 135
e 63 64
e 63 65
e 63 66
e 63 67
e 63 68
e 63 69
e 63 70
e 63 86
e 63 117
e 63 136
e 63 147
e 64 65
e 64 66
e 64 67
e 64 68
e 64 69
e 64 70
e 64 75
e 64 87
e 64 98
e 64 106
e 64 118
e 64 125
e 64 137
e 64 148
e 65 66
e 65 67
e 65 68
e 65 69
e 65 70
e 65 107
e 65 119
e 65 126
e 65 138
e 65 149
e 66 67
e 66 68
e 66 69
e 66 70
e 66 88
e 66 99
e 66 108
e 66 120
e 66 127
e 67 68
e 67 69
e 67 70
e 67 76
e 67 89
e 67 100
e 67 109
e 67 128
e 67 139
e 68 69
e 68 70
e 68 77
e 68 101
e 68 110
e 68 129
e 68 140
e 68 150
e 69 70
e 69 102
e 69 111
e 69 121
e 69 130
e 69 141
e 70 78
e 70 90
e 70 112
e 70 131
e 71 72
e 71 73
e 71 74
e 71 75
e 71 76
e 71 77
e 71 78
e 71 79
e 71 80
e 71 81
e 71 93
e 71 103
e 71 114
e 71 122
e 71 133
e 71 144
e 72 73
e 72 74
e 72 75
e 72 76
e 72 77
e 72 78
e 72 79
e 72 80
e 72 82
e 72 94
e 72 115
e 72 123
e 72 145
e 73 74
e 73 75
e 73 76
e 73 77
e 73 78
e 73 79
e 73 80
e 73 83
e 73 95
e 73 124
e 73 146
e 74 75
e 74 76
e 74 77
e 74 78
e 74 79
e 74 80
e 74 85
e 74 97
e 74 105
e 74 116
e 74 135
e 75 76
e 75 77
e 75 78
e 75 79
e 75 80
e 75 87
e 75 98
e 75 106
e 75 118
e 75 125
e 75 137
e 75 148
e 76 77
e 76 78
e 76 79
e 76 80
e 76 89
e 76 100
e 76 109
e 76 128
e 76 139
e 77 78
e 77 79
e 77 80
e 77 101
e 77 110
e 77 129
e 77 140
e 77 150
e 78 79
e 78 80
e 78 90
e 78 112
e 78 131
e 79 80
e 79 91
e 79 142
e 80 92
e 80 113
e 80 132
e 80 143
e 80 151
e 81 82
e 81 83
e 81 84
e 81 85
e 81 86
e 81 87
e 81 88
e 81 89
e 81 90
e 81 91
e 81 92
e 81 93
e 81 103
e 81 114
e 81 122
e 81 133
e 81 144
e 82 83
e 82 84
e 82 85
e 82 86
e 82 87
e 82 88
e 82 89
e 82 90
e 82 91
e 82 92
e 82 94
e 82 115
e 82 123
e 82 145
e 83 84
e 83 85
e 83 86
e 83 87
e 83 88
e 83 89
e 83 90
e 83 91
e 83 92
e 83 95
e 83 124
e 83 146
e 84 85
e 84 86
e 84 87
e 84 88
e 84 89
e 84 90
e 84 91
e 84 92
e 84 96
e 84 104
e 84 134
e 85 86
e 85 87
e 85 88
e 85 89
e 85 90
e 85 91
e 85 92
e 85 97
e 85 105
e 85 116
e 85 135
e 86 87
e 86 88
e 86 89
e 86 90
e 86 91
e 86 92
e 86 117
e 86 136
e 86 147
e 87 88
e 87 89
e 87 90
e 87 91
e 87 92
e 87 98
e 87 106
e 87 118
e 87 125
e 87 137
e 87 148
e 88 89
e 88 90
e 88 91
e 88 92
e 88 99
e 88 108
e 88 120
e 88 127
e 89 90
e 89 91
e 89 92
e 89 100
e 89 109
e 89 128
e 89 139
e 90 91
e 90 92
e 90 112
e 90 131
e 91 92
e 91 142
e 92 113
e 92 132
e 92 143
e 92 151
e 93 94
e 93 95
e 93 96
e 93 97
e 93 98
e 93 99
e 93 100
e 93 101
e 93 102
e 93 103
e 93 114
e 93 122
e 93 133
e 93 144
e 94 95
e 94 96
e 94 97
e 94 98
e 94 99
e 94 100
e 94 101
e 94 102
e 94 115
e 94 123
e 94 145
e 95 96
e 95 97
e 95 98
e 95 99
e 95 100
e 95 101
e 95 102
e 95 124
e 95 146
e 96 97
e 96 98
e 96 99
e 96 100
e 96 101
e 96 102
e 96 104
e 96 134
e 97 98
e 97 99
e 97 100
e 97 101
e 97 102
e 97 105
e 97 116
e 97 135
e 98 99
e 98 100
e 98 101
e 98 102
e 98 106
e 98 118
e 98 125
e 98 137
e 98 148
e 99 100
e 99 101
e 99 102
e 99 108
e 99 120
e 99 127
e 100 101
e 100 102
e 100 109
e 100 128
e 100 139
e 101 102
e 101 110
e 101 129
e 101 140
e 101 150
e 102 111
e 102 121
e 102 130
e 102 141
e 103 104
e 103 105
e 103 106
e 103 107
e 103 108
e 103 109
e 103 110
e 103 111
e 103 112
e 103 113
e 103 114
e 103 122
e 103 133
e 103 144
e 104 105
e 104 106
e 104 107
e 104 108
e 104 109
e 104 110
e 104 111
e 104 112
e 104 113
e 104 134
e 105 106
e 105 107
e 105 108
e 105 109
e 105 110
e 105 111
e 105 112
e 105 113
e 105 116
e 105 135
e 106 107
e 106 108
e 106 109
e 106 110
e 106 111
e 106 112
e 106 113
e 106 118
e 106 125
e 106 137
e 106 148
e 107 108
e 107 109
e 107 110
e 107 111
e 107 112
e 107 113
e 107 119
e 107 126
e 107 138
e 107 149
e 108 109
e 108 110
e 108 111
e 108 112
e 108 113
e 108 120
e 108 127
e 109 110
e 109 111
e 109 112
e 109 113
e 109 128
e 109 139
e 110 111
e 110 112
e 110 113
e 110 129
e 110 140
e 110 150
e 111 112
e 111 113
e 111 121
e 111 130
e 111 141
e 112 113
e 112 131
e 113 132
e 113 143
e 113 151
e 114 115
e 114 116
e 114 117
e 114 118
e 114 119
e 114 120
e 114 121
e 114 122
e 114 133
e 114 144
e 115 116
e 115 117
e 115 118
e 115 119
e 115 120
e 115 121
e 115 123
e 115 145
e 116 117
e 116 118
e 116 119
e 116 120
e 116 121
e 116 135
e 117 118
e 117 119
e 117 120
e 117 121
e 117 136
e 117 147
e 118 119
e 118 120
e 118 121
e 118 125
e 118 137
e 118 148
e 119 120
e 119 121
e 119 126
e 119 138
e 119 149
e 120 121
e 120 127
e 121 130
e 121 141
e 122 123
e 122 124
e 122 125
e 122 126
e 122 127
e 122 128
e 122 129
e 122 130
e 122 131
e 122 132
e 122 133
e 122 144
e 123 124
e 123 125
e 123 126
e 123 127
e 123 128
e 123 129
e 123 130
e 123 131
e 123 132
e 123 145
e 124 125
e 124 126
e 124 127
e 124 128
e 124 129
e 124 130
e 124 131
e 124 132
e 124 146
e 125 126
e 125 127
e 125 128
e 125 129
e 125 130
e 125 131
e 125 132
e 125 137
e 125 148
e 126 127
e 126 128
e 126 129
e 126 130
e 126 131
e 126 132
e 126 138
e 126 149
e 127 128
e 127 129
e 127 130
e 127 131
e 127 132
e 128 129
e 128 130
e 128 131
e 128 132
e 128 139
e 129 130
e 129 131
e 129 132
e 129 140
e 129 150
e 130 131
e 130 132
e 130 141
e 131 132
e 132 143
e 132 151
e 133 134
e 133 135
e 133 136
e 133 137
e 133 138
e 133 139
e 133 140
e 133 141
e 133 142
e 133 143
e 133 144
e 134 135
e 134 136
e 134 137
e 134 138
e 134 139
e 134 140
e 134 141
e 134 142
e 134 143
e 135 136
e 135 137
e 135 138
e 135 139
e 135 140
e 135 141
e 135 142
e 135 143
e 136 137
e 136 138
e 136 139
e 136 140
e 136 141
e 136 142
e 136 143
e 136 147
e 137 138
e 137 139
e 137 140
e 137 141
e 137 142
e 137 143
e 137 148
e 138 139
e 138 140
e 138 141
e 138 142
e 138 143
e 138 149
e 139 140
e 139 141
e 139 142
e 139 143
e 140 141
e 140 142
e 140 143
e 140 150
e 141 142
e 141 143
e 142 143
e 143 151
e 144 145
e 144 146
e 144 147
e 144 148
e 144 149
e 144 150
e 144 151
e 145 146
e 145 147
e 145 148
e 145 149
e 145 150
e 145 151
e 146 147
e 146 148
e 146 149
e 146 150
e 146 151
e 147 148
e 147 149
e 147 150
e 147 151
e 148 149
e 148 150
e 148 151
e 149 150
e 149 151
e 150 151
